Maximize
 obj: 0 X1
Subject To
 c1:
  + 5380 X1 + 4730 X2 + 7790 X3 + 7040 X4 + 3610 X5 + 1410 X6 + 6380 X7 + 6080 X8
  + 2680 X9 + 9950 X10
  <= 27520
 obj1:
  + 571 X1 + 899 X2 + 166 X3 + 888 X4 + 362 X5 + 935 X6 + 248 X7 + 128 X8
  + 358 X9 + 899 X10
  >= 1
 obj2:
  + 634 X1 + 801 X2 + 559 X3 + 591 X4 + 875 X5 + 136 X6 + 673 X7 + 455 X8
  + 482 X9 + 283 X10
  >= 2
 obj3:
  + 13 X1 + 746 X2 + 644 X3 + 917 X4 + 513 X5 + 489 X6 + 110 X7 + 116 X8
  + 902 X9 + 881 X10
  >= 3
Binary
 X1
 X2
 X3
 X4
 X5
 X6
 X7
 X8
 X9
 X10
End
